\Problem name: 

Minimize
OBJROW: 2.23607 var(1) + 8.06226 var(2) + 9.21954 var(3) + 12.52996 var(4) + 2.23607 var(5) + 6.32456 var(7) + 8 var(8) + 10.77033 var(9) + 8.06226 var(10) + 6.32456 var(11)
 + 2.82843 var(13) + 4.47214 var(14) + 9.21954 var(15) + 8 var(16) + 2.82843 var(17) + 4.47214 var(19) + 12.52996 var(20) + 10.77033 var(21) + 4.47214 var(22) + 4.47214 var(23)
Subject To
constr(0):  var(1) + var(2) + var(3) + var(4) = 1
constr(1):  var(5) + var(7) + var(8) + var(9) = 1
constr(2):  var(10) + var(11) + var(13) + var(14) = 1
constr(3):  var(15) + var(16) + var(17) + var(19) = 1
constr(4):  var(20) + var(21) + var(22) + var(23) = 1
constr(5):  var(5) + var(10) + var(15) + var(20) = 1
constr(6):  var(1) + var(11) + var(16) + var(21) = 1
constr(7):  var(2) + var(7) + var(17) + var(22) = 1
constr(8):  var(3) + var(8) + var(13) + var(23) = 1
constr(9):  var(4) + var(9) + var(14) + var(19) = 1
constr(10):  -6 var(7) + var(26) - var(27) >= -5
constr(11):  -6 var(8) + var(26) - var(28) >= -5
constr(12):  -6 var(9) + var(26) - var(29) >= -5
constr(13):  -6 var(11) - var(26) + var(27) >= -5
constr(14):  -6 var(13) + var(27) - var(28) >= -5
constr(15):  -6 var(14) + var(27) - var(29) >= -5
constr(16):  -6 var(16) - var(26) + var(28) >= -5
constr(17):  -6 var(17) - var(27) + var(28) >= -5
constr(18):  -6 var(19) + var(28) - var(29) >= -5
constr(19):  -6 var(21) - var(26) + var(29) >= -5
constr(20):  -6 var(22) - var(27) + var(29) >= -5
constr(21):  -6 var(23) - var(28) + var(29) >= -5
Bounds
 0 <= var(0) <= 1
 0 <= var(1) <= 1
 0 <= var(2) <= 1
 0 <= var(3) <= 1
 0 <= var(4) <= 1
 0 <= var(5) <= 1
 0 <= var(6) <= 1
 0 <= var(7) <= 1
 0 <= var(8) <= 1
 0 <= var(9) <= 1
 0 <= var(10) <= 1
 0 <= var(11) <= 1
 0 <= var(12) <= 1
 0 <= var(13) <= 1
 0 <= var(14) <= 1
 0 <= var(15) <= 1
 0 <= var(16) <= 1
 0 <= var(17) <= 1
 0 <= var(18) <= 1
 0 <= var(19) <= 1
 0 <= var(20) <= 1
 0 <= var(21) <= 1
 0 <= var(22) <= 1
 0 <= var(23) <= 1
 0 <= var(24) <= 1
Integers
var(0) var(1) var(2) var(3) var(4) var(5) var(6) var(7) var(8) var(9) 
var(10) var(11) var(12) var(13) var(14) var(15) var(16) var(17) var(18) var(19) 
var(20) var(21) var(22) var(23) var(24) 
End
